5 5
5 5 2 9 3 10 4 16 5 14 1 10 4 2 7 3 20 5 12 4 20 4 1 2 3 7 5 19 4 17 1 5 13 5 4 16 2 6 5 19 3 14 1 14
5 5 3 10 2 2 1 4 5 14 4 16 3 4 2 1 13 2 9 3 4 19 2 17 5 18 1 1 8 5 1 19 3 16 5 14 2 5 4 10
4 1 3 3 2 4 19 1 8 1 4 3 2 4 13 3 9
4 4 3 9 2 7 5 20 1 14 4 2 13 3 7 5 12 4 6 1 1 20 3 3 2 5 16 4 11
5 2 5 13 1 19 3 4 7 1 9 3 5 2 3 7 2 10 3 1 10 4 8 2 18 1 2 11